feasible solution found by trivial heuristic after 0.3 seconds, objective value 8.619030e+05
presolving:
(round 1, fast)       0 del vars, 0 del conss, 0 add conss, 0 chg bounds, 0 chg sides, 150600 chg coeffs, 0 upgd conss, 0 impls, 15000 clqs
   (1.1s) running MILP presolver
   (1.5s) MILP presolver (2 rounds): 0 aggregations, 0 fixings, 0 bound changes
(round 2, medium)     0 del vars, 153100 del conss, 15850 add conss, 0 chg bounds, 0 chg sides, 150600 chg coeffs, 0 upgd conss, 0 impls, 15000 clqs
(round 3, exhaustive) 0 del vars, 153100 del conss, 15850 add conss, 0 chg bounds, 0 chg sides, 150600 chg coeffs, 15250 upgd conss, 0 impls, 15000 clqs
   (1.9s) probing: 51/15060 (0.3%) - 0 fixings, 0 aggregations, 0 implications, 0 bound changes
   (1.9s) probing aborted: 50/50 successive totally useless probings
   (2.0s) symmetry computation started: requiring (bin +, int -, cont +), (fixed: bin -, int +, cont -)
   (2.0s) no symmetry present
presolving (4 rounds: 4 fast, 3 medium, 2 exhaustive):
 0 deleted vars, 153100 deleted constraints, 15850 added constraints, 0 tightened bounds, 0 added holes, 0 changed sides, 150600 changed coefficients
 0 implications, 15000 cliques
presolved problem has 15060 variables (15060 bin, 0 int, 0 impl, 0 cont) and 15850 constraints
  15000 constraints of type <setppc>
    600 constraints of type <linear>
    250 constraints of type <logicor>
Presolving Time: 1.77
transformed 1/1 original solutions to the transformed problem space

 time | node  | left  |LP iter|LP it/n|mem/heur|mdpt |vars |cons |rows |cuts |sepa|confs|strbr|  dualbound   | primalbound  |  gap   | compl. 
p 2.3s|     1 |     0 |     0 |     - |  clique|   0 |  15k|  15k|  15k|   0 |  0 |   0 |   0 | 0.000000e+00 | 1.295086e+04 |    Inf | unknown
  5.9s|     1 |     0 |  9778 |     - |   325M |   0 |  15k|  15k|  15k|   0 |  0 |   0 |   0 | 6.955979e+03 | 1.295086e+04 |  86.18%| unknown
r 5.9s|     1 |     0 |  9778 |     - |rounding|   0 |  15k|  15k|  15k|   0 |  0 |   0 |   0 | 6.955979e+03 | 1.186700e+04 |  70.60%| unknown
  7.6s|     1 |     0 | 10037 |     - |   338M |   0 |  15k|  15k|  15k|   4 |  1 |   0 |   0 | 6.963225e+03 | 1.186700e+04 |  70.42%| unknown
  8.9s|     1 |     0 | 10297 |     - |   341M |   0 |  15k|  15k|  15k|   6 |  2 |   0 |   0 | 6.967859e+03 | 1.186700e+04 |  70.31%| unknown
 11.2s|     1 |     0 | 10765 |     - |   347M |   0 |  15k|  15k|  15k|  10 |  3 |   0 |   0 | 6.974973e+03 | 1.186700e+04 |  70.14%| unknown
 13.4s|     1 |     0 | 11141 |     - |   354M |   0 |  15k|  15k|  15k|  13 |  4 |   0 |   0 | 6.981281e+03 | 1.186700e+04 |  69.98%| unknown
 14.6s|     1 |     0 | 11516 |     - |   355M |   0 |  15k|  15k|  15k|  16 |  5 |   0 |   0 | 6.985652e+03 | 1.186700e+04 |  69.88%| unknown
 15.9s|     1 |     0 | 11824 |     - |   358M |   0 |  15k|  15k|  15k|  21 |  6 |   0 |   0 | 6.991578e+03 | 1.186700e+04 |  69.73%| unknown
 18.0s|     1 |     0 | 11942 |     - |   368M |   0 |  15k|  15k|  15k|  22 |  7 |   0 |   0 | 6.994950e+03 | 1.186700e+04 |  69.65%| unknown
 19.4s|     1 |     0 | 12374 |     - |   369M |   0 |  15k|  15k|  15k|  26 |  8 |   0 |   0 | 7.000048e+03 | 1.186700e+04 |  69.53%| unknown
 20.7s|     1 |     0 | 12690 |     - |   371M |   0 |  15k|  15k|  15k|  31 |  9 |   0 |   0 | 7.003338e+03 | 1.186700e+04 |  69.45%| unknown
 22.0s|     1 |     0 | 12990 |     - |   374M |   0 |  15k|  15k|  15k|  33 | 10 |   0 |   0 | 7.005629e+03 | 1.186700e+04 |  69.39%| unknown
 22.8s|     1 |     0 | 13425 |     - |   377M |   0 |  15k|  15k|  15k|  36 | 11 |   0 |   0 | 7.010306e+03 | 1.186700e+04 |  69.28%| unknown
 23.4s|     1 |     0 | 13655 |     - |   379M |   0 |  15k|  15k|  15k|  41 | 12 |   0 |   0 | 7.013997e+03 | 1.186700e+04 |  69.19%| unknown
 time | node  | left  |LP iter|LP it/n|mem/heur|mdpt |vars |cons |rows |cuts |sepa|confs|strbr|  dualbound   | primalbound  |  gap   | compl. 
 24.0s|     1 |     0 | 13764 |     - |   382M |   0 |  15k|  15k|  15k|  43 | 13 |   0 |   0 | 7.015123e+03 | 1.186700e+04 |  69.16%| unknown
 24.7s|     1 |     0 | 13992 |     - |   386M |   0 |  15k|  15k|  15k|  46 | 14 |   0 |   0 | 7.016911e+03 | 1.186700e+04 |  69.12%| unknown
 25.3s|     1 |     0 | 14154 |     - |   388M |   0 |  15k|  15k|  15k|  48 | 15 |   0 |   0 | 7.019060e+03 | 1.186700e+04 |  69.07%| unknown
 26.0s|     1 |     0 | 14384 |     - |   392M |   0 |  15k|  15k|  15k|  50 | 16 |   0 |   0 | 7.020903e+03 | 1.186700e+04 |  69.02%| unknown
 26.6s|     1 |     0 | 14570 |     - |   394M |   0 |  15k|  15k|  15k|  51 | 17 |   0 |   0 | 7.022329e+03 | 1.186700e+04 |  68.99%| unknown
 27.4s|     1 |     0 | 14908 |     - |   394M |   0 |  15k|  15k|  15k|  54 | 18 |   0 |   0 | 7.026726e+03 | 1.186700e+04 |  68.88%| unknown
 28.0s|     1 |     0 | 15052 |     - |   395M |   0 |  15k|  15k|  15k|  56 | 19 |   0 |   0 | 7.027684e+03 | 1.186700e+04 |  68.86%| unknown
 28.7s|     1 |     0 | 15261 |     - |   397M |   0 |  15k|  15k|  15k|  57 | 20 |   0 |   0 | 7.028562e+03 | 1.186700e+04 |  68.84%| unknown
 29.2s|     1 |     0 | 15354 |     - |   397M |   0 |  15k|  15k|  15k|  59 | 21 |   0 |   0 | 7.029016e+03 | 1.186700e+04 |  68.83%| unknown
d33.5s|     1 |     0 | 21904 |     - |farkasdi|   0 |  15k|  15k|  15k|   0 | 23 |   0 |   0 | 7.029016e+03 | 7.689635e+03 |   9.40%| unknown
 39.1s|     1 |     0 | 31947 |     - |   399M |   0 |  15k|  15k|  15k|  59 | 23 |   0 |   0 | 7.029016e+03 | 7.689635e+03 |   9.40%| unknown
 39.2s|     1 |     0 | 31947 |     - |   399M |   0 |  15k|  15k|  11k|  59 | 23 |   0 |   0 | 7.029016e+03 | 7.689635e+03 |   9.40%| unknown
 39.7s|     1 |     0 | 31959 |     - |   399M |   0 |  15k|  10k|  10k|  60 | 24 |   0 |   0 | 7.029140e+03 | 7.689635e+03 |   9.40%| unknown
(run 1, node 1) restarting after 6778 global fixings of integer variables

(restart) converted 59 cuts from the global cut pool into linear constraints

presolving:
(round 1, fast)       6778 del vars, 0 del conss, 0 add conss, 0 chg bounds, 0 chg sides, 6761 chg coeffs, 0 upgd conss, 0 impls, 8249 clqs
   (39.9s) running MILP presolver
   (39.9s) MILP presolver found nothing
(round 2, exhaustive) 6778 del vars, 0 del conss, 0 add conss, 0 chg bounds, 0 chg sides, 6761 chg coeffs, 50 upgd conss, 0 impls, 8249 clqs
presolving (3 rounds: 3 fast, 2 medium, 2 exhaustive):
 6778 deleted vars, 0 deleted constraints, 0 added constraints, 0 tightened bounds, 0 added holes, 0 changed sides, 6761 changed coefficients
 0 implications, 8249 cliques
presolved problem has 8282 variables (8282 bin, 0 int, 0 impl, 0 cont) and 8888 constraints
     50 constraints of type <knapsack>
   8249 constraints of type <setppc>
    339 constraints of type <linear>
    250 constraints of type <logicor>
Presolving Time: 1.99
transformed 5/6 original solutions to the transformed problem space

 time | node  | left  |LP iter|LP it/n|mem/heur|mdpt |vars |cons |rows |cuts |sepa|confs|strbr|  dualbound   | primalbound  |  gap   | compl. 
 44.9s|     1 |     0 | 43322 |     - |   378M |   0 |8282 |8888 |8888 |   0 |  0 |   0 |   0 | 7.029140e+03 | 7.689635e+03 |   9.40%| unknown
 45.4s|     1 |     0 | 43322 |     - |   378M |   0 |8282 |8888 |8374 |   0 |  0 |   0 |   0 | 7.029140e+03 | 7.689635e+03 |   9.40%| unknown
 46.2s|     1 |     0 | 43425 |     - |   380M |   0 |8282 |8374 |8346 |   2 |  1 |   0 |   0 | 7.029948e+03 | 7.689635e+03 |   9.38%| unknown
 47.1s|     1 |     0 | 43461 |     - |   382M |   0 |8282 |8374 |8347 |   3 |  2 |   0 |   0 | 7.030117e+03 | 7.689635e+03 |   9.38%| unknown
 47.7s|     1 |     0 | 43569 |     - |   383M |   0 |8282 |8374 |8349 |   5 |  3 |   0 |   0 | 7.030736e+03 | 7.689635e+03 |   9.37%| unknown
 48.6s|     1 |     0 | 43863 |     - |   383M |   0 |8282 |8374 |8351 |   7 |  4 |   0 |   0 | 7.032160e+03 | 7.689635e+03 |   9.35%| unknown
 49.3s|     1 |     0 | 43970 |     - |   385M |   0 |8282 |8374 |8352 |   8 |  5 |   0 |   0 | 7.033136e+03 | 7.689635e+03 |   9.33%| unknown
 50.1s|     1 |     0 | 44166 |     - |   386M |   0 |8282 |8374 |8354 |  10 |  6 |   0 |   0 | 7.034741e+03 | 7.689635e+03 |   9.31%| unknown
 50.8s|     1 |     0 | 44222 |     - |   388M |   0 |8282 |8374 |8356 |  12 |  7 |   0 |   0 | 7.034978e+03 | 7.689635e+03 |   9.31%| unknown
 51.6s|     1 |     0 | 44322 |     - |   388M |   0 |8282 |8374 |8357 |  13 |  8 |   0 |   0 | 7.035528e+03 | 7.689635e+03 |   9.30%| unknown
 52.5s|     1 |     0 | 44506 |     - |   389M |   0 |8282 |8374 |8358 |  14 |  9 |   0 |   0 | 7.037687e+03 | 7.689635e+03 |   9.26%| unknown
 53.2s|     1 |     0 | 44560 |     - |   390M |   0 |8282 |8374 |8359 |  15 | 10 |   0 |   0 | 7.037903e+03 | 7.689635e+03 |   9.26%| unknown
 53.5s|     1 |     0 | 44612 |     - |   391M |   0 |8282 |8374 |8360 |  16 | 11 |   0 |   0 | 7.038145e+03 | 7.689635e+03 |   9.26%| unknown
 53.9s|     1 |     0 | 44735 |     - |   392M |   0 |8282 |8374 |8361 |  17 | 12 |   0 |   0 | 7.038620e+03 | 7.689635e+03 |   9.25%| unknown
 54.4s|     1 |     0 | 44896 |     - |   393M |   0 |8282 |8374 |8363 |  19 | 13 |   0 |   0 | 7.039459e+03 | 7.689635e+03 |   9.24%| unknown
 time | node  | left  |LP iter|LP it/n|mem/heur|mdpt |vars |cons |rows |cuts |sepa|confs|strbr|  dualbound   | primalbound  |  gap   | compl. 
 54.8s|     1 |     0 | 44928 |     - |   394M |   0 |8282 |8374 |8364 |  20 | 14 |   0 |   0 | 7.039717e+03 | 7.689635e+03 |   9.23%| unknown
 55.2s|     1 |     0 | 45002 |     - |   395M |   0 |8282 |8374 |8361 |  21 | 15 |   0 |   0 | 7.040734e+03 | 7.689635e+03 |   9.22%| unknown
 55.6s|     1 |     0 | 45103 |     - |   395M |   0 |8282 |8374 |8363 |  23 | 16 |   0 |   0 | 7.041539e+03 | 7.689635e+03 |   9.20%| unknown
d57.6s|     1 |     0 | 49035 |     - |farkasdi|   0 |8282 |8107 |8363 |   0 | 18 |   0 |   0 | 7.041539e+03 | 7.617134e+03 |   8.17%| unknown
 58.5s|     1 |     0 | 49035 |     - |   395M |   0 |8282 |8107 |8363 |  23 | 18 |   0 |   0 | 7.041539e+03 | 7.617134e+03 |   8.17%| unknown
 58.9s|     1 |     0 | 49150 |     - |   396M |   0 |8282 |8107 |8365 |  25 | 19 |   0 |   0 | 7.042683e+03 | 7.617134e+03 |   8.16%| unknown
 59.0s|     1 |     0 | 49167 |     - |   396M |   0 |8282 |8107 |8366 |  26 | 20 |   0 |   0 | 7.042731e+03 | 7.617134e+03 |   8.16%| unknown
 67.3s|     1 |     2 | 49167 |     - |   396M |   0 |8282 |8107 |8366 |  26 | 20 |   0 |  24 | 7.080692e+03 | 7.617134e+03 |   7.58%| unknown
(run 2, node 1) restarting after 754 global fixings of integer variables

(restart) converted 26 cuts from the global cut pool into linear constraints

presolving:
(round 1, fast)       754 del vars, 0 del conss, 0 add conss, 0 chg bounds, 0 chg sides, 761 chg coeffs, 0 upgd conss, 0 impls, 7498 clqs
(round 2, exhaustive) 754 del vars, 0 del conss, 0 add conss, 0 chg bounds, 0 chg sides, 761 chg coeffs, 26 upgd conss, 0 impls, 7498 clqs
presolving (3 rounds: 3 fast, 2 medium, 2 exhaustive):
 754 deleted vars, 0 deleted constraints, 0 added constraints, 0 tightened bounds, 0 added holes, 0 changed sides, 761 changed coefficients
 0 implications, 7498 cliques
presolved problem has 7528 variables (7528 bin, 0 int, 0 impl, 0 cont) and 8133 constraints
     76 constraints of type <knapsack>
   7498 constraints of type <setppc>
    309 constraints of type <linear>
    250 constraints of type <logicor>
Presolving Time: 2.09
transformed 8/9 original solutions to the transformed problem space

 time | node  | left  |LP iter|LP it/n|mem/heur|mdpt |vars |cons |rows |cuts |sepa|confs|strbr|  dualbound   | primalbound  |  gap   | compl. 
 71.8s|     1 |     0 | 60397 |     - |   401M |   0 |7528 |8133 |8133 |   0 |  0 |   0 |  24 | 7.080692e+03 | 7.617134e+03 |   7.58%| unknown
 72.2s|     1 |     0 | 60397 |     - |   401M |   0 |7528 |8133 |8061 |   0 |  0 |   0 |  24 | 7.080692e+03 | 7.617134e+03 |   7.58%| unknown
 73.0s|     1 |     0 | 60480 |     - |   403M |   0 |7528 |8061 |8063 |   2 |  1 |   0 |  24 | 7.080692e+03 | 7.617134e+03 |   7.58%| unknown
 73.0s|     1 |     0 | 60480 |     - |   403M |   0 |7528 |8061 |8057 |   2 |  1 |   0 |  24 | 7.080692e+03 | 7.617134e+03 |   7.58%| unknown
 73.7s|     1 |     0 | 60564 |     - |   403M |   0 |7528 |8055 |8058 |   3 |  2 |   0 |  24 | 7.080692e+03 | 7.617134e+03 |   7.58%| unknown
 73.7s|     1 |     0 | 60564 |     - |   403M |   0 |7528 |8055 |8026 |   3 |  2 |   0 |  24 | 7.080692e+03 | 7.617134e+03 |   7.58%| unknown
 74.3s|     1 |     0 | 60618 |     - |   404M |   0 |7528 |8023 |8027 |   4 |  3 |   0 |  24 | 7.080692e+03 | 7.617134e+03 |   7.58%| unknown
 75.1s|     1 |     0 | 60649 |     - |   405M |   0 |7528 |8023 |8028 |   5 |  4 |   0 |  24 | 7.080692e+03 | 7.617134e+03 |   7.58%| unknown
 75.9s|     1 |     0 | 60714 |     - |   406M |   0 |7528 |8023 |8030 |   7 |  5 |   0 |  24 | 7.080692e+03 | 7.617134e+03 |   7.58%| unknown
 76.7s|     1 |     0 | 60929 |     - |   407M |   0 |7528 |8023 |8031 |   8 |  6 |   0 |  24 | 7.080692e+03 | 7.617134e+03 |   7.58%| unknown
 87.4s|     1 |     2 | 65258 |     - |   409M |   0 |7528 |8021 |8031 |   8 |  8 |   0 |  45 | 7.083618e+03 | 7.617134e+03 |   7.53%| unknown
*99.0s|     4 |     3 | 69883 |5895.8 |strongbr|   3 |7528 |8021 |8014 |   8 |  1 |   0 |  86 | 7.095405e+03 | 7.439125e+03 |   4.84%| unknown
* 104s|     7 |     2 | 74677 |4284.1 |strongbr|   3 |7528 |8024 |8014 |   8 |  2 |   3 | 120 | 7.095405e+03 | 7.432171e+03 |   4.75%|  34.91%
* 105s|     8 |     1 | 75312 |3878.7 |strongbr|   3 |7528 |8025 |8014 |   8 |  1 |   4 | 123 | 7.095405e+03 | 7.426271e+03 |   4.66%|  39.50%
* 105s|     8 |     1 | 75821 |3935.2 |strongbr|   3 |7528 |8028 |8014 |   8 |  2 |   7 | 127 | 7.095405e+03 | 7.425839e+03 |   4.66%|  39.50%

SCIP Status        : problem is solved [optimal solution found]
Solving Time (sec) : 116.67
Solving Nodes      : 11 (total of 13 nodes in 3 runs)
Primal Bound       : +7.42583852665925e+03 (19 solutions)
Dual Bound         : +7.42583852665925e+03
Gap                : 0.00 %
Solve Status: optimal
Solve Time: 116.69 seconds
